NAME: concorde91
TYPE: TSP
DIMENSION: 15 
EDGE_WEIGHT_TYPE: EUC_2D
NODE_COORD_SECTION
1 44 48
2 56 28
3 17 46
4 56 4
5 61 88
6 64 75
7 80 7
8 34 43
9 33 52
10 99 74
11 72 27
12 41 49
13 57 97
14 10 85
15 87 27
